\* PractiveProblem *\
Maximize
OBJ: - 2 1 - 3 2 - 3 - 4 + 6
Subject To
_C1: 1 - 2 - 6 <= 3
_C2: 1 - 4 - 5 <= -1
_C3: - 3 + 6 <= -2
_C4: - 2 - 3 + 4 + 6 <= 4
_C5: 1 + 3 + 5 + 6 <= 6
_C6: - 1 - 4 + 5 - 6 <= -2
End
